c description: Perfect Matching Principle on 
c generator: CNFgen (0.9.0)
c copyright: (C) 2012-2020 Massimo Lauria <massimo.lauria@uniroma1.it>
c url: https://massimolauria.net/cnfgen
c
p cnf 80 346
-1 -2 0
-1 -3 0
-1 -4 0
-2 -3 0
-2 -4 0
-3 -4 0
1 2 3 4 0
-5 -6 0
-5 -7 0
-5 -8 0
-5 -9 0
-6 -7 0
-6 -8 0
-6 -9 0
-7 -8 0
-7 -9 0
-8 -9 0
5 6 7 8 9 0
-10 -11 0
-10 -12 0
-11 -12 0
10 11 12 0
-13 -14 0
-13 -15 0
-13 -16 0
-13 -17 0
-14 -15 0
-14 -16 0
-14 -17 0
-15 -16 0
-15 -17 0
-16 -17 0
13 14 15 16 17 0
-18 -19 0
-18 -20 0
-18 -21 0
-19 -20 0
-19 -21 0
-20 -21 0
18 19 20 21 0
-22 -23 0
-22 -24 0
-22 -25 0
-23 -24 0
-23 -25 0
-24 -25 0
22 23 24 25 0
-26 -27 0
26 27 0
-1 -28 0
-1 -29 0
-1 -30 0
-1 -31 0
-28 -29 0
-28 -30 0
-28 -31 0
-29 -30 0
-29 -31 0
-30 -31 0
1 28 29 30 31 0
-26 -28 0
26 28 0
-18 -32 0
-18 -33 0
-18 -34 0
-32 -33 0
-32 -34 0
-33 -34 0
18 32 33 34 0
-35 -36 0
-35 -37 0
-35 -38 0
-35 -39 0
-36 -37 0
-36 -38 0
-36 -39 0
-37 -38 0
-37 -39 0
-38 -39 0
35 36 37 38 39 0
-2 -40 0
-2 -41 0
-2 -42 0
-40 -41 0
-40 -42 0
-41 -42 0
2 40 41 42 0
-19 -35 0
-19 -43 0
-19 -44 0
-19 -45 0
-19 -46 0
-35 -43 0
-35 -44 0
-35 -45 0
-35 -46 0
-43 -44 0
-43 -45 0
-43 -46 0
-44 -45 0
-44 -46 0
-45 -46 0
19 35 43 44 45 46 0
-13 -29 0
-13 -47 0
-13 -48 0
-29 -47 0
-29 -48 0
-47 -48 0
13 29 47 48 0
-14 -22 0
-14 -43 0
-14 -49 0
-14 -50 0
-14 -51 0
-22 -43 0
-22 -49 0
-22 -50 0
-22 -51 0
-43 -49 0
-43 -50 0
-43 -51 0
-49 -50 0
-49 -51 0
-50 -51 0
14 22 43 49 50 51 0
-52 -53 0
-52 -54 0
-53 -54 0
52 53 54 0
-32 -55 0
-32 -56 0
-32 -57 0
-55 -56 0
-55 -57 0
-56 -57 0
32 55 56 57 0
-5 -36 0
5 36 0
-10 -58 0
-10 -59 0
-10 -60 0
-10 -61 0
-58 -59 0
-58 -60 0
-58 -61 0
-59 -60 0
-59 -61 0
-60 -61 0
10 58 59 60 61 0
-11 -40 0
11 40 0
-6 -33 0
-6 -49 0
-6 -62 0
-33 -49 0
-33 -62 0
-49 -62 0
6 33 49 62 0
-23 -34 0
-23 -50 0
-23 -52 0
-23 -55 0
-23 -62 0
-23 -63 0
-34 -50 0
-34 -52 0
-34 -55 0
-34 -62 0
-34 -63 0
-50 -52 0
-50 -55 0
-50 -62 0
-50 -63 0
-52 -55 0
-52 -62 0
-52 -63 0
-55 -62 0
-55 -63 0
-62 -63 0
23 34 50 52 55 62 63 0
-53 -56 0
53 56 0
-30 -64 0
-30 -65 0
-30 -66 0
-64 -65 0
-64 -66 0
-65 -66 0
30 64 65 66 0
-44 -67 0
-44 -68 0
-44 -69 0
-67 -68 0
-67 -69 0
-68 -69 0
44 67 68 69 0
-3 -41 0
-3 -47 0
-3 -70 0
-3 -71 0
-3 -72 0
-41 -47 0
-41 -70 0
-41 -71 0
-41 -72 0
-47 -70 0
-47 -71 0
-47 -72 0
-70 -71 0
-70 -72 0
-71 -72 0
3 41 47 70 71 72 0
0
-12 -24 0
-12 -37 0
-12 -58 0
-12 -63 0
-12 -73 0
-24 -37 0
-24 -58 0
-24 -63 0
-24 -73 0
-37 -58 0
-37 -63 0
-37 -73 0
-58 -63 0
-58 -73 0
-63 -73 0
12 24 37 58 63 73 0
-7 -20 0
-7 -38 0
-7 -54 0
-7 -59 0
-7 -74 0
-20 -38 0
-20 -54 0
-20 -59 0
-20 -74 0
-38 -54 0
-38 -59 0
-38 -74 0
-54 -59 0
-54 -74 0
-59 -74 0
7 20 38 54 59 74 0
21 0
-4 -8 0
-4 -39 0
-4 -45 0
-4 -60 0
-4 -70 0
-4 -74 0
-4 -75 0
-4 -76 0
-4 -77 0
-8 -39 0
-8 -45 0
-8 -60 0
-8 -70 0
-8 -74 0
-8 -75 0
-8 -76 0
-8 -77 0
-39 -45 0
-39 -60 0
-39 -70 0
-39 -74 0
-39 -75 0
-39 -76 0
-39 -77 0
-45 -60 0
-45 -70 0
-45 -74 0
-45 -75 0
-45 -76 0
-45 -77 0
-60 -70 0
-60 -74 0
-60 -75 0
-60 -76 0
-60 -77 0
-70 -74 0
-70 -75 0
-70 -76 0
-70 -77 0
-74 -75 0
-74 -76 0
-74 -77 0
-75 -76 0
-75 -77 0
-76 -77 0
4 8 39 45 60 70 74 75 76 77 0
-73 -78 0
-73 -79 0
-78 -79 0
73 78 79 0
-9 -51 0
-9 -61 0
-9 -67 0
-9 -75 0
-51 -61 0
-51 -67 0
-51 -75 0
-61 -67 0
-61 -75 0
-67 -75 0
9 51 61 67 75 0
-15 -48 0
-15 -68 0
-48 -68 0
15 48 68 0
-16 -69 0
-16 -76 0
-69 -76 0
16 69 76 0
-17 -27 0
-17 -57 0
-17 -64 0
-17 -78 0
-27 -57 0
-27 -64 0
-27 -78 0
-57 -64 0
-57 -78 0
-64 -78 0
17 27 57 64 78 0
65 0
-46 -66 0
-46 -79 0
-46 -80 0
-66 -79 0
-66 -80 0
-79 -80 0
46 66 79 80 0
-31 -42 0
-31 -71 0
-31 -80 0
-42 -71 0
-42 -80 0
-71 -80 0
31 42 71 80 0
-25 -72 0
-25 -77 0
-72 -77 0
25 72 77 0